NAME : welcome91
COMMENT : 91-city problem (Iwama)
TYPE : TSP
DIMENSION : 91
EDGE_WEIGHT_TYPE : EUC_2D
NODE_COORD_SECTION
1 2 -26
2 10 -26
3 16 -26
4 39 -26
5 2 -27
6 10 -27
7 16 -27
8 39 -27
9 3 -28
10 6 -28
11 9 -28
12 16 -28
13 39 -28
14 3 -29
15 6 -29
16 9 -29
17 12 -29
18 13 -29
19 16 -29
20 19 -29
21 20 -29
22 24 -29
23 25 -29
24 28 -29
25 35 -29
26 36 -29
27 39 -29
28 3 -30
29 4 -30
30 6 -30
31 9 -30
32 11 -30
33 14 -30
34 16 -30
35 18 -30
36 21 -30
37 23 -30
38 26 -30
39 28 -30
40 29 -30
41 31 -30
42 32 -30
43 34 -30
44 37 -30
45 39 -30
46 4 -31
47 5 -31
48 7 -31
49 11 -31
50 12 -31
51 13 -31
52 14 -31
53 16 -31
54 18 -31
55 23 -31
56 26 -31
57 28 -31
58 30 -31
59 32 -31
60 34 -31
61 35 -31
62 36 -31
63 37 -31
64 39 -31
65 4 -32
66 8 -32
67 11 -32
68 16 -32
69 18 -32
70 21 -32
71 23 -32
72 26 -32
73 28 -32
74 30 -32
75 32 -32
76 34 -32
77 4 -33
78 8 -33
79 12 -33
80 13 -33
81 16 -33
82 19 -33
83 20 -33
84 24 -33
85 25 -33
86 28 -33
87 30 -33
88 32 -33
89 35 -33
90 36 -33
91 39 -33
EOF